NAME : A-n5
COMMENT : GVRP
DIMENSION : 9
VEHICLES : 2
GVRP_SETS : 2
CAPACITY : 10
EDGE_WEIGHT_TYPE : EUC_2D
NODE_COORD_SECTION
1 0 0
2 1 1
3 3 3
4 2 2
5 4 4
6 5 5
7 6 6
8 7 7
9 8 8
GVRP_SET_SECTION
1 3 5 6 8 -1
2 2 4 7 9 -1
DEMAND_SECTION
1 8
2 6
EOF